(set-logic ALL)
(set-option :produce-models true)
(declare-sort BoundSet 0)
(declare-sort UnboundSet 0)
(declare-fun IsReleasedMore (BoundSet BoundSet) Bool)
(declare-fun SavesMore (BoundSet BoundSet) Bool)
(declare-fun ( (Bool) Bool)
(declare-fun They (BoundSet) Bool)
(declare-fun IsNeeded (BoundSet BoundSet) Bool)
(declare-fun IsWind (BoundSet) Bool)
(declare-fun IsSolar (BoundSet) Bool)
(assert (not (=> (exists ((c BoundSet)) (exists ((a BoundSet)) (exists ((b BoundSet)) (and (exists ((d BoundSet)) (( (and (IsReleasedMore a b) (SavesMore c d)))) (not (They d)))))) (exists ((e BoundSet)) (exists ((f BoundSet)) (and (IsNeeded e f) (and (IsWind f) (IsSolar f))))))))
(check-sat)
(get-model)